p edge 20 72
e 1 11
e 1 12
e 1 15
e 1 17
e 1 18
e 1 20
e 2 3
e 2 6
e 2 9
e 2 10
e 2 11
e 2 15
e 2 20
e 3 4
e 3 6
e 3 7
e 3 8
e 3 11
e 3 13
e 3 14
e 3 15
e 3 16
e 3 17
e 3 19
e 4 10
e 4 11
e 4 12
e 4 15
e 4 16
e 4 17
e 4 19
e 5 6
e 5 7
e 5 8
e 5 12
e 5 15
e 5 16
e 5 18
e 5 20
e 6 8
e 6 12
e 6 13
e 6 15
e 7 8
e 7 11
e 7 12
e 8 11
e 8 13
e 8 14
e 8 16
e 8 18
e 8 19
e 8 20
e 9 10
e 9 12
e 10 12
e 10 13
e 10 16
e 11 12
e 11 16
e 11 17
e 11 19
e 12 14
e 12 16
e 12 19
e 12 20
e 14 18
e 15 16
e 15 18
e 15 19
e 18 19
e 19 20
